solution status: optimal solution found
objective value:                     155313.267999989
d11(0,0)                                            1 	(obj:0)
d11(1,1)                                            1 	(obj:0)
d11(2,3)                                            1 	(obj:0)
d11(2,4)                                            1 	(obj:0)
d11(2,5)                                            1 	(obj:0)
d11(3,7)                                            1 	(obj:0)
d11(3,8)                                            1 	(obj:0)
d11(3,9)                                            1 	(obj:0)
d11(3,10)                                           1 	(obj:0)
d11(3,11)                                           1 	(obj:0)
d11(3,12)                                           1 	(obj:0)
d11(3,13)                                           1 	(obj:0)
d11(3,14)                                           1 	(obj:0)
d12(1,2)                                            1 	(obj:0)
d21(3,7)                                            1 	(obj:0)
d21(3,11)                                           1 	(obj:0)
WB(2)                                3315.65537776224 	(obj:0)
y2(1,2)                              1385.48851144897 	(obj:0)
STE(1,1)                             13041.0000000001 	(obj:0)
STE(0,0)                                        14175 	(obj:0)
STE(1,2)                             14357.2140858765 	(obj:0)
STE(2,3)                             10248.7501011111 	(obj:0)
STE(2,4)                             11906.9999999999 	(obj:0)
STE(2,5)                             11564.9641869876 	(obj:0)
STE(2,6)                             13223.2140858765 	(obj:0)
STE(3,7)                             2594.24995111109 	(obj:0)
STE(3,8)                                   4252.49985 	(obj:0)
STE(3,9)                                   4252.49985 	(obj:0)
STE(3,10)                            5910.74974888882 	(obj:0)
STE(3,11)                            3910.46403698764 	(obj:0)
STE(3,12)                            5568.71393587646 	(obj:0)
STE(3,13)                            5568.71393587658 	(obj:0)
STE(3,14)                            7226.96383476539 	(obj:0)
AVE(2)                               3315.65537776224 	(obj:0)
y1(2,3)                              1492.42490900004 	(obj:0)
y1(2,5)                              1492.42490900004 	(obj:0)
y1(3,7)                              5868.45013500004 	(obj:0)
y1(3,8)                              4376.02522600002 	(obj:0)
y1(3,9)                              5868.45013499995 	(obj:0)
y1(3,10)                             4376.02522600001 	(obj:0)
y1(3,11)                             5868.45013499995 	(obj:0)
y1(3,12)                             4376.02522600001 	(obj:0)
y1(3,13)                             5868.45013499995 	(obj:0)
y1(3,14)                             4376.02522600001 	(obj:0)
AVE(3)                               3315.65799770399 	(obj:0)
WB(1)                                3248.33172520918 	(obj:0)
WG(3)                                3315.65799770399 	(obj:10)
BG(1)                                 2673.4099387755 	(obj:10)
BG(2)                                4196.29249897967 	(obj:10)
BG(3)                                 5345.9663645409 	(obj:10)
AVE(1)                               3248.33172520918 	(obj:0)
